N = 7;
H = 6;
T = 2;

avail = array3d(1..N, 1..H, 1..T, [5, 2, 0, 2, 1, 8, 10, 4, 8, 4, 8, 6, 1, 9, 0, 5, 2, 2, 1, 3, 8, 3, 5, 3, 4, 3, 4, 5, 5, 10, 9, 7, 7, 5, 6, 9, 9, 6, 9, 6, 8, 4, 6, 1, 0, 0, 9, 5, 5, 9, 0, 8, 3, 0, 5, 9, 3, 1, 1, 10, 4, 1, 10, 4, 7, 7, 0, 1, 7, 9, 9, 3, 0, 3, 6, 9, 2, 2, 5, 7, 10, 9, 9, 6]);

r = array2d(1..H, 1..T, [3, 3, 1, 2, 1, 0, 1, 2, 3, 0, 1, 2]);
